benchmarks/VRPTW/TSPTW/solution/n60w60.002.txt.solution
1 49 10 45 14 57 20 42 33 6 60 53 2 21 48 56 25 27 9 55 46 15 50 4 37 24 19 59 41 52 35 16 26 43 13 38 17 12 23 51 8 34 58 11 3 54 32 47 39 31 5 18 40 7 44 22 36 61 28 30 29 
566
